784 1568
1 2 1
1 29 5
2 3 4
2 30 5
3 4 1
3 31 3
4 5 5
4 32 3
5 6 4
5 33 4
6 7 1
6 34 2
7 8 4
7 35 3
8 9 5
8 36 3
9 10 3
9 37 3
10 11 4
10 38 2
11 12 5
11 39 3
12 13 2
12 40 3
13 14 4
13 41 5
14 15 4
14 42 5
15 16 1
15 43 3
16 17 3
16 44 4
17 18 3
17 45 2
18 19 5
18 46 3
19 20 4
19 47 1
20 21 3
20 48 1
21 22 2
21 49 2
22 23 3
22 50 4
23 24 3
23 51 5
24 25 5
24 52 1
25 26 3
25 53 3
26 27 3
26 54 4
27 28 1
27 55 4
28 56 5
29 30 3
29 57 1
30 31 1
30 58 4
31 32 4
31 59 1
32 33 3
32 60 4
33 34 1
33 61 3
34 35 2
34 62 5
35 36 1
35 63 4
36 37 4
36 64 1
37 38 2
37 65 4
38 39 4
38 66 2
39 40 5
39 67 2
40 41 5
40 68 3
41 42 3
41 69 2
42 43 1
42 70 1
43 44 4
43 71 1
44 45 3
44 72 5
45 46 5
45 73 4
46 47 5
46 74 5
47 48 3
47 75 1
48 49 1
48 76 2
49 50 2
49 77 1
50 51 1
50 78 5
51 52 2
51 79 2
52 53 3
52 80 5
53 54 2
53 81 3
54 55 3
54 82 1
55 56 3
55 83 1
56 84 2
57 58 2
57 85 3
58 59 3
58 86 2
59 60 5
59 87 5
60 61 4
60 88 5
61 62 1
61 89 5
62 63 5
62 90 2
63 64 3
63 91 3
64 65 2
64 92 2
65 66 4
65 93 1
66 67 3
66 94 4
67 68 5
67 95 2
68 69 1
68 96 4
69 70 1
69 97 1
70 71 3
70 98 5
71 72 5
71 99 4
72 73 2
72 100 4
73 74 3
73 101 3
74 75 4
74 102 1
75 76 3
75 103 4
76 77 3
76 104 5
77 78 2
77 105 3
78 79 1
78 106 3
79 80 1
79 107 2
80 81 4
80 108 4
81 82 3
81 109 4
82 83 3
82 110 2
83 84 5
83 111 3
84 112 3
85 86 5
85 113 5
86 87 4
86 114 2
87 88 1
87 115 5
88 89 2
88 116 3
89 90 5
89 117 1
90 91 3
90 118 1
91 92 2
91 119 2
92 93 1
92 120 2
93 94 4
93 121 2
94 95 1
94 122 1
95 96 3
95 123 3
96 97 1
96 124 3
97 98 2
97 125 2
98 99 2
98 126 4
99 100 5
99 127 5
100 101 5
100 128 1
101 102 3
101 129 2
102 103 2
102 130 1
103 104 4
103 131 3
104 105 4
104 132 1
105 106 3
105 133 3
106 107 5
106 134 3
107 108 3
107 135 2
108 109 5
108 136 3
109 110 2
109 137 3
110 111 4
110 138 4
111 112 5
111 139 2
112 140 2
113 114 5
113 141 3
114 115 3
114 142 2
115 116 2
115 143 1
116 117 1
116 144 2
117 118 4
117 145 1
118 119 1
118 146 3
119 120 4
119 147 5
120 121 3
120 148 4
121 122 4
121 149 5
122 123 1
122 150 2
123 124 4
123 151 3
124 125 1
124 152 3
125 126 4
125 153 5
126 127 1
126 154 5
127 128 2
127 155 3
128 129 4
128 156 4
129 130 2
129 157 4
130 131 1
130 158 3
131 132 3
131 159 3
132 133 4
132 160 1
133 134 4
133 161 3
134 135 1
134 162 1
135 136 1
135 163 3
136 137 1
136 164 2
137 138 2
137 165 3
138 139 3
138 166 3
139 140 5
139 167 5
140 168 2
141 142 3
141 169 5
142 143 1
142 170 5
143 144 1
143 171 2
144 145 5
144 172 4
145 146 3
145 173 3
146 147 1
146 174 2
147 148 2
147 175 1
148 149 3
148 176 4
149 150 5
149 177 1
150 151 2
150 178 5
151 152 4
151 179 4
152 153 4
152 180 2
153 154 2
153 181 4
154 155 5
154 182 3
155 156 4
155 183 3
156 157 1
156 184 2
157 158 2
157 185 2
158 159 2
158 186 2
159 160 3
159 187 5
160 161 3
160 188 5
161 162 4
161 189 5
162 163 5
162 190 2
163 164 5
163 191 1
164 165 2
164 192 5
165 166 4
165 193 4
166 167 2
166 194 4
167 168 1
167 195 2
168 196 2
169 170 4
169 197 5
170 171 3
170 198 2
171 172 3
171 199 2
172 173 1
172 200 1
173 174 4
173 201 1
174 175 5
174 202 2
175 176 1
175 203 1
176 177 2
176 204 3
177 178 4
177 205 5
178 179 3
178 206 5
179 180 4
179 207 1
180 181 2
180 208 5
181 182 1
181 209 1
182 183 4
182 210 4
183 184 1
183 211 4
184 185 5
184 212 5
185 186 5
185 213 2
186 187 5
186 214 3
187 188 2
187 215 3
188 189 3
188 216 4
189 190 1
189 217 1
190 191 4
190 218 1
191 192 2
191 219 4
192 193 4
192 220 1
193 194 1
193 221 2
194 195 4
194 222 1
195 196 4
195 223 1
196 224 3
197 198 5
197 225 2
198 199 1
198 226 5
199 200 2
199 227 5
200 201 5
200 228 5
201 202 3
201 229 4
202 203 5
202 230 4
203 204 4
203 231 5
204 205 4
204 232 5
205 206 3
205 233 2
206 207 3
206 234 2
207 208 3
207 235 4
208 209 1
208 236 1
209 210 2
209 237 5
210 211 5
210 238 2
211 212 2
211 239 5
212 213 4
212 240 4
213 214 4
213 241 3
214 215 3
214 242 3
215 216 1
215 243 2
216 217 2
216 244 1
217 218 1
217 245 2
218 219 3
218 246 1
219 220 2
219 247 2
220 221 3
220 248 3
221 222 3
221 249 4
222 223 4
222 250 2
223 224 1
223 251 3
224 252 3
225 226 2
225 253 1
226 227 1
226 254 5
227 228 5
227 255 4
228 229 4
228 256 1
229 230 1
229 257 4
230 231 5
230 258 5
231 232 5
231 259 2
232 233 3
232 260 3
233 234 1
233 261 2
234 235 4
234 262 4
235 236 4
235 263 3
236 237 1
236 264 2
237 238 4
237 265 1
238 239 5
238 266 2
239 240 4
239 267 4
240 241 3
240 268 1
241 242 1
241 269 1
242 243 4
242 270 3
243 244 1
243 271 5
244 245 1
244 272 4
245 246 3
245 273 2
246 247 3
246 274 5
247 248 4
247 275 4
248 249 4
248 276 1
249 250 2
249 277 1
250 251 5
250 278 3
251 252 5
251 279 4
252 280 2
253 254 5
253 281 1
254 255 2
254 282 4
255 256 4
255 283 3
256 257 1
256 284 1
257 258 3
257 285 5
258 259 4
258 286 4
259 260 3
259 287 5
260 261 2
260 288 5
261 262 1
261 289 4
262 263 5
262 290 4
263 264 1
263 291 4
264 265 2
264 292 5
265 266 3
265 293 5
266 267 5
266 294 1
267 268 4
267 295 4
268 269 4
268 296 2
269 270 2
269 297 4
270 271 2
270 298 3
271 272 3
271 299 2
272 273 3
272 300 5
273 274 5
273 301 5
274 275 5
274 302 2
275 276 5
275 303 5
276 277 2
276 304 2
277 278 3
277 305 1
278 279 3
278 306 1
279 280 2
279 307 3
280 308 3
281 282 4
281 309 2
282 283 2
282 310 5
283 284 1
283 311 3
284 285 5
284 312 2
285 286 3
285 313 1
286 287 2
286 314 3
287 288 1
287 315 5
288 289 2
288 316 5
289 290 4
289 317 4
290 291 2
290 318 2
291 292 1
291 319 3
292 293 3
292 320 4
293 294 3
293 321 1
294 295 2
294 322 2
295 296 3
295 323 4
296 297 5
296 324 1
297 298 1
297 325 1
298 299 3
298 326 4
299 300 4
299 327 2
300 301 2
300 328 5
301 302 4
301 329 5
302 303 4
302 330 2
303 304 1
303 331 1
304 305 2
304 332 1
305 306 3
305 333 2
306 307 5
306 334 1
307 308 4
307 335 2
308 336 5
309 310 2
309 337 2
310 311 5
310 338 2
311 312 1
311 339 2
312 313 5
312 340 4
313 314 5
313 341 5
314 315 4
314 342 3
315 316 2
315 343 3
316 317 2
316 344 2
317 318 3
317 345 1
318 319 4
318 346 2
319 320 1
319 347 1
320 321 1
320 348 3
321 322 2
321 349 5
322 323 2
322 350 3
323 324 3
323 351 2
324 325 2
324 352 2
325 326 1
325 353 2
326 327 3
326 354 4
327 328 4
327 355 2
328 329 2
328 356 1
329 330 2
329 357 4
330 331 1
330 358 2
331 332 5
331 359 4
332 333 5
332 360 3
333 334 2
333 361 3
334 335 2
334 362 5
335 336 4
335 363 5
336 364 2
337 338 3
337 365 2
338 339 1
338 366 5
339 340 5
339 367 1
340 341 1
340 368 3
341 342 2
341 369 1
342 343 1
342 370 5
343 344 2
343 371 3
344 345 2
344 372 4
345 346 1
345 373 5
346 347 3
346 374 3
347 348 2
347 375 4
348 349 5
348 376 5
349 350 4
349 377 1
350 351 2
350 378 5
351 352 5
351 379 4
352 353 5
352 380 1
353 354 4
353 381 5
354 355 1
354 382 4
355 356 5
355 383 4
356 357 3
356 384 5
357 358 3
357 385 2
358 359 3
358 386 4
359 360 3
359 387 1
360 361 3
360 388 3
361 362 1
361 389 1
362 363 4
362 390 5
363 364 4
363 391 4
364 392 1
365 366 3
365 393 4
366 367 5
366 394 2
367 368 4
367 395 4
368 369 2
368 396 5
369 370 2
369 397 4
370 371 5
370 398 1
371 372 3
371 399 2
372 373 2
372 400 1
373 374 3
373 401 5
374 375 1
374 402 1
375 376 4
375 403 4
376 377 3
376 404 1
377 378 5
377 405 4
378 379 1
378 406 5
379 380 2
379 407 1
380 381 2
380 408 2
381 382 5
381 409 4
382 383 1
382 410 1
383 384 5
383 411 4
384 385 2
384 412 4
385 386 3
385 413 2
386 387 4
386 414 3
387 388 1
387 415 1
388 389 3
388 416 3
389 390 2
389 417 2
390 391 5
390 418 1
391 392 4
391 419 1
392 420 3
393 394 2
393 421 2
394 395 5
394 422 3
395 396 5
395 423 4
396 397 4
396 424 3
397 398 2
397 425 1
398 399 1
398 426 1
399 400 3
399 427 1
400 401 2
400 428 1
401 402 3
401 429 4
402 403 2
402 430 2
403 404 4
403 431 2
404 405 3
404 432 3
405 406 4
405 433 1
406 407 4
406 434 5
407 408 5
407 435 2
408 409 5
408 436 3
409 410 5
409 437 5
410 411 1
410 438 1
411 412 1
411 439 1
412 413 5
412 440 4
413 414 3
413 441 2
414 415 5
414 442 4
415 416 2
415 443 3
416 417 2
416 444 4
417 418 3
417 445 4
418 419 4
418 446 5
419 420 2
419 447 2
420 448 5
421 422 5
421 449 4
422 423 3
422 450 3
423 424 5
423 451 3
424 425 4
424 452 4
425 426 2
425 453 3
426 427 1
426 454 3
427 428 5
427 455 5
428 429 1
428 456 4
429 430 3
429 457 1
430 431 1
430 458 5
431 432 5
431 459 4
432 433 3
432 460 5
433 434 1
433 461 5
434 435 4
434 462 2
435 436 4
435 463 1
436 437 3
436 464 3
437 438 2
437 465 4
438 439 5
438 466 3
439 440 4
439 467 1
440 441 1
440 468 1
441 442 4
441 469 5
442 443 4
442 470 3
443 444 4
443 471 4
444 445 4
444 472 3
445 446 5
445 473 4
446 447 3
446 474 4
447 448 3
447 475 4
448 476 2
449 450 1
449 477 5
450 451 1
450 478 4
451 452 2
451 479 3
452 453 5
452 480 4
453 454 2
453 481 4
454 455 3
454 482 1
455 456 4
455 483 3
456 457 2
456 484 2
457 458 3
457 485 3
458 459 1
458 486 2
459 460 4
459 487 4
460 461 4
460 488 4
461 462 2
461 489 1
462 463 5
462 490 3
463 464 3
463 491 4
464 465 2
464 492 5
465 466 2
465 493 3
466 467 3
466 494 4
467 468 4
467 495 5
468 469 4
468 496 1
469 470 1
469 497 4
470 471 5
470 498 1
471 472 5
471 499 3
472 473 2
472 500 2
473 474 3
473 501 5
474 475 1
474 502 1
475 476 3
475 503 3
476 504 3
477 478 3
477 505 4
478 479 5
478 506 1
479 480 3
479 507 3
480 481 5
480 508 4
481 482 5
481 509 4
482 483 1
482 510 2
483 484 5
483 511 4
484 485 3
484 512 2
485 486 5
485 513 4
486 487 3
486 514 5
487 488 5
487 515 2
488 489 2
488 516 5
489 490 2
489 517 5
490 491 1
490 518 1
491 492 2
491 519 1
492 493 4
492 520 2
493 494 4
493 521 4
494 495 3
494 522 5
495 496 4
495 523 2
496 497 1
496 524 5
497 498 4
497 525 1
498 499 2
498 526 2
499 500 1
499 527 4
500 501 4
500 528 4
501 502 2
501 529 4
502 503 5
502 530 4
503 504 3
503 531 1
504 532 1
505 506 1
505 533 4
506 507 2
506 534 4
507 508 5
507 535 1
508 509 1
508 536 3
509 510 4
509 537 5
510 511 5
510 538 2
511 512 3
511 539 2
512 513 5
512 540 3
513 514 2
513 541 5
514 515 4
514 542 5
515 516 1
515 543 4
516 517 5
516 544 5
517 518 5
517 545 2
518 519 3
518 546 3
519 520 4
519 547 3
520 521 1
520 548 5
521 522 2
521 549 4
522 523 2
522 550 5
523 524 5
523 551 3
524 525 3
524 552 4
525 526 2
525 553 2
526 527 2
526 554 5
527 528 5
527 555 3
528 529 1
528 556 4
529 530 5
529 557 1
530 531 3
530 558 5
531 532 3
531 559 4
532 560 5
533 534 2
533 561 5
534 535 2
534 562 2
535 536 2
535 563 3
536 537 2
536 564 4
537 538 5
537 565 1
538 539 1
538 566 3
539 540 5
539 567 5
540 541 2
540 568 5
541 542 5
541 569 3
542 543 2
542 570 1
543 544 5
543 571 4
544 545 2
544 572 4
545 546 1
545 573 5
546 547 4
546 574 4
547 548 5
547 575 1
548 549 2
548 576 2
549 550 1
549 577 1
550 551 5
550 578 3
551 552 2
551 579 2
552 553 1
552 580 3
553 554 1
553 581 5
554 555 1
554 582 1
555 556 4
555 583 4
556 557 4
556 584 4
557 558 5
557 585 1
558 559 2
558 586 2
559 560 3
559 587 3
560 588 2
561 562 1
561 589 3
562 563 2
562 590 4
563 564 1
563 591 1
564 565 2
564 592 5
565 566 2
565 593 3
566 567 1
566 594 5
567 568 2
567 595 3
568 569 2
568 596 2
569 570 5
569 597 5
570 571 1
570 598 5
571 572 3
571 599 5
572 573 5
572 600 3
573 574 5
573 601 4
574 575 2
574 602 1
575 576 1
575 603 5
576 577 1
576 604 5
577 578 1
577 605 2
578 579 5
578 606 3
579 580 1
579 607 2
580 581 3
580 608 5
581 582 5
581 609 1
582 583 4
582 610 1
583 584 4
583 611 5
584 585 1
584 612 3
585 586 5
585 613 3
586 587 5
586 614 1
587 588 4
587 615 1
588 616 1
589 590 4
589 617 1
590 591 3
590 618 2
591 592 3
591 619 4
592 593 2
592 620 1
593 594 1
593 621 3
594 595 1
594 622 3
595 596 2
595 623 5
596 597 5
596 624 4
597 598 1
597 625 3
598 599 3
598 626 1
599 600 5
599 627 3
600 601 3
600 628 3
601 602 2
601 629 1
602 603 1
602 630 3
603 604 1
603 631 1
604 605 1
604 632 2
605 606 4
605 633 3
606 607 1
606 634 3
607 608 4
607 635 5
608 609 4
608 636 4
609 610 1
609 637 1
610 611 1
610 638 5
611 612 3
611 639 4
612 613 5
612 640 4
613 614 2
613 641 4
614 615 1
614 642 1
615 616 3
615 643 2
616 644 2
617 618 4
617 645 5
618 619 5
618 646 3
619 620 2
619 647 5
620 621 2
620 648 4
621 622 4
621 649 1
622 623 3
622 650 2
623 624 5
623 651 3
624 625 5
624 652 4
625 626 5
625 653 2
626 627 5
626 654 5
627 628 4
627 655 5
628 629 2
628 656 1
629 630 1
629 657 4
630 631 3
630 658 2
631 632 5
631 659 2
632 633 1
632 660 1
633 634 2
633 661 3
634 635 3
634 662 5
635 636 1
635 663 4
636 637 1
636 664 2
637 638 4
637 665 1
638 639 4
638 666 5
639 640 2
639 667 2
640 641 4
640 668 3
641 642 3
641 669 1
642 643 2
642 670 3
643 644 1
643 671 4
644 672 5
645 646 2
645 673 2
646 647 4
646 674 2
647 648 4
647 675 3
648 649 3
648 676 3
649 650 1
649 677 5
650 651 2
650 678 3
651 652 5
651 679 5
652 653 4
652 680 1
653 654 4
653 681 2
654 655 3
654 682 1
655 656 4
655 683 5
656 657 3
656 684 2
657 658 3
657 685 3
658 659 5
658 686 2
659 660 2
659 687 1
660 661 2
660 688 5
661 662 1
661 689 3
662 663 2
662 690 1
663 664 3
663 691 5
664 665 2
664 692 5
665 666 5
665 693 1
666 667 1
666 694 5
667 668 3
667 695 4
668 669 4
668 696 2
669 670 4
669 697 2
670 671 5
670 698 5
671 672 3
671 699 2
672 700 3
673 674 1
673 701 4
674 675 4
674 702 4
675 676 3
675 703 3
676 677 5
676 704 1
677 678 3
677 705 5
678 679 1
678 706 1
679 680 1
679 707 4
680 681 5
680 708 5
681 682 2
681 709 3
682 683 5
682 710 4
683 684 3
683 711 2
684 685 5
684 712 5
685 686 2
685 713 2
686 687 2
686 714 5
687 688 4
687 715 3
688 689 4
688 716 5
689 690 4
689 717 5
690 691 1
690 718 3
691 692 4
691 719 2
692 693 4
692 720 5
693 694 3
693 721 2
694 695 2
694 722 4
695 696 4
695 723 3
696 697 1
696 724 4
697 698 4
697 725 4
698 699 3
698 726 2
699 700 3
699 727 4
700 728 2
701 702 1
701 729 4
702 703 2
702 730 4
703 704 2
703 731 1
704 705 2
704 732 5
705 706 4
705 733 3
706 707 5
706 734 2
707 708 3
707 735 2
708 709 5
708 736 1
709 710 1
709 737 4
710 711 1
710 738 1
711 712 3
711 739 2
712 713 3
712 740 2
713 714 4
713 741 5
714 715 1
714 742 3
715 716 1
715 743 1
716 717 4
716 744 3
717 718 1
717 745 4
718 719 2
718 746 2
719 720 1
719 747 4
720 721 5
720 748 1
721 722 5
721 749 4
722 723 1
722 750 2
723 724 1
723 751 4
724 725 3
724 752 4
725 726 1
725 753 2
726 727 2
726 754 5
727 728 3
727 755 5
728 756 1
729 730 5
729 757 2
730 731 4
730 758 5
731 732 5
731 759 2
732 733 5
732 760 1
733 734 3
733 761 5
734 735 2
734 762 2
735 736 4
735 763 3
736 737 1
736 764 3
737 738 4
737 765 3
738 739 1
738 766 5
739 740 4
739 767 3
740 741 5
740 768 1
741 742 3
741 769 3
742 743 4
742 770 5
743 744 3
743 771 1
744 745 4
744 772 4
745 746 3
745 773 3
746 747 5
746 774 5
747 748 1
747 775 5
748 749 3
748 776 3
749 750 2
749 777 1
750 751 5
750 778 4
751 752 5
751 779 1
752 753 2
752 780 4
753 754 2
753 781 2
754 755 5
754 782 2
755 756 1
755 783 4
756 784 3
757 758 2
758 759 5
759 760 5
760 761 1
761 762 3
762 763 5
763 764 4
764 765 4
765 766 5
766 767 2
767 768 5
768 769 4
769 770 4
770 771 2
771 772 1
772 773 1
773 774 5
774 775 5
775 776 1
776 777 2
777 778 1
778 779 5
779 780 2
780 781 1
781 782 3
782 783 5
783 784 1
1 757 5
2 758 4
3 759 5
4 760 1
5 761 5
6 762 4
7 763 3
8 764 5
9 765 4
10 766 3
11 767 4
12 768 1
13 769 2
14 770 1
15 771 5
16 772 2
17 773 1
18 774 4
19 775 3
20 776 3
21 777 4
22 778 1
23 779 2
24 780 3
25 781 5
26 782 4
27 783 3
28 784 1
1 28 1
29 56 5
57 84 2
85 112 5
113 140 2
141 168 3
169 196 2
197 224 2
225 252 4
253 280 5
281 308 3
309 336 2
337 364 4
365 392 5
393 420 4
421 448 2
449 476 2
477 504 3
505 532 4
533 560 5
561 588 2
589 616 3
617 644 1
645 672 3
673 700 2
701 728 4
729 756 4
757 784 2
